c ---- [ banner ] ------------------------------------------------------------
c
c Kissat SAT Solver
c 
c Copyright (c) 2021-2024 Armin Biere University of Freiburg
c Copyright (c) 2019-2021 Armin Biere Johannes Kepler University Linz
c 
c Version 4.0.1 43f02cf3e992cb44653b35e5cb26f93281552ae0
c gcc (Ubuntu 13.2.0-23ubuntu4) 13.2.0 -W -Wall -O3 -DNDEBUG
c Thu Sep 12 12:27:46 CEST 2024 Linux abryzen9 6.8.0-41-generic x86_64
c
c ---- [ parsing ] -----------------------------------------------------------
c
c opened and reading DIMACS file:
c
c   /data/artifact/AMulet2.0_artifact/exp4/cnf_resyn3_64/64_64_U1_4to2_HCA_Multgen_resyn3.cnf
c
c parsed 'p cnf 19264 73722' header
c closing input after reading 1421138 bytes (1 MB)
c finished parsing after 0.01 seconds
c
c ---- [ options ] -----------------------------------------------------------
c
c --stable=0                       (different from default '1')
c
c ---- [ solving ] -----------------------------------------------------------
c
c  seconds switched rate     size/glue tier1  binary          remaining
c         MB reductions conflicts size  tier2     irredundant
c          level restarts redundant glue  trail          variables
c
c *  0.01  7 0 0 0  0 0   0   0 0.0 0 0 0 0 0% 11818 61902 19261 100%
c (  0.02  8 0 0 0  0 0   0   0 0.0 0 0 0 0 0% 11818 61902 19261 100%
c .  0.02  8 0 0 0  0 0   0   0 0.0 0 0 0 0 0% 11814 61902 19261 100%
c c  0.06 12 0 0 0  0 0   0   0 0.0 0 0 0 0 0% 12002 61593 19144 99%
c d  0.06 12 0 0 0  0 0   0   0 0.0 0 0 0 0 0% 11760 61593 19144 99%
c f  0.13 12 0 0 0  0 0   0   0 0.0 0 0 0 0 0% 11710 61571 19156 99%
c e  0.20 16 0 0 0  0 0   0   0 0.0 0 0 0 0 0% 5179 64936 13815 72%
c )  0.20 16 0 0 0  0 0   0   0 0.0 0 0 0 0 0% 5179 64936 13815 72%
c {  0.21 16 0 0 0  0 0   0   0 0.0 0 0 2 6 0% 5179 64936 13815 72%
c i  0.21 16 93 0 0  0 17 124  67 1.8 3 2 1 2 6% 5229 64935 13814 72%
c i  0.22 16 77 0 0 140 22 401 306 1.7 5 3 2 5 7% 5248 64935 13813 72%
c i  0.23 16 78 0 0 207 26 583 463 1.6 6 4 2 7 8% 5258 64935 13812 72%
c i  0.24 16 80 0 0 229 26 706 570 1.6 6 4 2 7 11% 5266 64935 13811 72%
c -  0.27 16 82 0 1 287 24 1001 772 1.7 6 4 3 8 13% 5277 64907 13811 72%
c -  0.36 16 82 0 2 617 26 2001 1541 1.7 8 5 3 9 15% 5287 64907 13811 72%
c i  0.36 16 81 0 2 633 26 2056 1590 1.7 8 5 3 9 15% 5287 64907 13810 72%
c c  0.41 16 93 0 2 730 26 2512 1984 1.8 9 5 3 9 15% 5422 64672 13740 71%
c d  0.41 16 93 0 2 730 26 2512 1975 1.8 9 5 3 9 15% 5284 64670 13740 71%
c u  0.42 16 93 0 2 730 26 2512 1377 1.8 9 5 3 9 15% 5232 64670 13740 71%
c v  0.43 16 93 0 2 730 26 2512 1277 1.8 9 5 3 9 15% 5232 64670 13740 71%
c
c  seconds  switched   rate       size/glue tier1   binary         remaining
c         MB reductions conflicts      size  tier2     irredundant
c          level restarts    redundant   glue   trail         variables
c
c w  0.43 16 93 0 2 730 26 2512 1277 1.8 9 5 3 9 15% 5232 64670 13740 71%
c x  0.44 16 93 0 2 730 26 2512 1277 1.8 9 5 3 9 15% 5284 64545 13737 71%
c d  0.44 16 93 0 2 730 26 2512 1275 1.8 9 5 3 9 15% 5291 64533 13736 71%
c t  0.44 16 93 0 2 730 26 2512 1275 1.8 9 5 3 9 15% 5243 64533 13736 71%
c f  0.45 16 93 0 2 730 26 2512 1275 1.8 9 5 3 9 15% 5537 64088 13883 72%
c c  0.48 16 93 0 2 730 26 2512 1273 1.8 9 5 3 9 15% 5559 64066 13872 72%
c d  0.49 16 93 0 2 730 26 2512 1273 1.8 9 5 3 9 15% 5537 64066 13872 72%
c u  0.49 16 93 0 2 730 26 2512 1225 1.8 9 5 3 9 15% 5532 64066 13872 72%
c v  0.50 16 93 0 2 730 26 2512 1143 1.8 9 5 3 9 15% 5532 64066 13872 72%
c w  0.51 16 93 0 2 730 26 2512 1142 1.8 9 5 3 9 15% 5532 64066 13872 72%
c x  0.52 16 93 0 2 730 26 2512 1142 1.8 9 5 3 9 15% 5541 64054 13872 72%
c =  0.55 16 93 0 2 730 26 2512 1142 1.8 9 5 3 9 15% 5557 64015 13856 72%
c d  0.55 16 93 0 2 730 26 2512 1140 1.8 9 5 3 9 15% 5552 63999 13856 72%
c t  0.55 16 93 0 2 730 26 2512 1140 1.8 9 5 3 9 15% 5547 63999 13856 72%
c f  0.56 16 93 0 2 730 26 2512 1140 1.8 9 5 3 9 15% 5914 63441 14042 73%
c i  0.56 16 93 0 2 730 26 2512 1140 1.8 9 5 3 9 15% 5914 63441 14042 73%
c -  0.62 16 109 0 3 863 25 3416 1706 1.8 9 5 3 10 18% 5902 63440 14042 73%
c -  0.75 16 118 0 4 1155 26 5148 2861 1.8 9 5 3 10 21% 5924 63439 14042 73%
c -  0.92 16 119 0 5 1473 26 7148 4093 1.9 10 5 3 10 21% 5931 63439 14042 73%
c d  0.97 16 119 0 5 1537 25 7737 4623 1.9 10 5 3 10 21% 5931 63439 14039 73%
c
c  seconds   switched    rate       size/glue tier1     binary         remaining
c         MB  reductions  conflicts       size  tier2      irredundant
c           level  restarts    redundant    glue    trail         variables
c
c u  1.00 16 119 0 5 1537 25 7737 3257 1.9 10 5 3 10 21% 5932 63439 14039 73%
c v  1.02 16 119 0 5 1537 25 7737 2901 1.9 10 5 3 10 21% 5932 63439 14039 73%
c w  1.03 16 119 0 5 1537 25 7737 2897 1.9 10 5 3 10 21% 5932 63439 14039 73%
c t  1.10 16 119 0 5 1537 25 7737 2897 1.9 10 5 3 10 21% 5912 63439 14039 73%
c f  1.12 16 119 0 5 1537 25 7737 2897 1.9 10 5 3 10 21% 6782 62126 14474 75%
c c  1.16 16 119 0 5 1537 25 7737 2883 1.9 10 5 3 10 21% 6838 62004 14447 75%
c d  1.16 16 119 0 5 1537 25 7737 2883 1.9 10 5 3 10 21% 6784 62004 14447 75%
c u  1.18 16 119 0 5 1537 25 7737 2750 1.9 10 5 3 10 21% 6778 62004 14447 75%
c v  1.19 16 119 0 5 1537 25 7737 2636 1.9 10 5 3 10 21% 6778 62004 14447 75%
c w  1.20 16 119 0 5 1537 25 7737 2632 1.9 10 5 3 10 21% 6778 62004 14447 75%
c x  1.21 16 119 0 5 1537 25 7737 2631 1.9 10 5 3 10 21% 6792 61900 14447 75%
c t  1.22 16 119 0 5 1537 25 7737 2631 1.9 10 5 3 10 21% 6781 61900 14447 75%
c f  1.24 16 119 0 5 1537 25 7737 2631 1.9 10 5 3 10 21% 8001 60070 15057 78%
c i  1.25 16 120 0 5 1542 25 7810 2699 1.9 10 5 3 10 21% 8001 60070 15056 78%
c -  1.36 16 122 0 6 1667 24 9384 3502 1.9 10 5 3 9 22% 8016 60069 15056 78%
c i  1.40 16 122 0 6 1695 23 9760 3852 1.9 10 5 3 9 22% 8023 60069 15055 78%
c o  1.42 16 122 0 6 1712 23 10039 4094 1.9 10 5 3 9 22% 8033 60069 15055 78%
c -  1.53 16 120 0 7 1853 22 11834 4759 1.9 11 6 2 9 22% 8052 60067 15055 78%
c s  1.58 16 117 0 7 1901 21 12553 5345 1.9 10 5 2 9 21% 8066 59980 15055 78%
c e  1.66 16 117 0 7 1901 21 12553 5345 1.9 10 5 2 9 21% 7129 60626 13781 72%
c
c  seconds   switched    rate        size/glue tier1    binary         remaining
c         MB  reductions   conflicts       size  tier2     irredundant
c           level  restarts     redundant    glue   trail         variables
c
c s  1.67 16 117 0 7 1901 21 12553 5345 1.9 10 5 2 9 21% 7145 60412 13781 72%
c e  1.68 16 117 0 7 1901 21 12553 5345 1.9 10 5 2 9 21% 7085 60463 13750 71%
c ^  1.68 16 117 0 7 1901 21 12553 5345 1.9 10 5 2 9 21% 7085 60463 13750 71%
c -  1.87 17 117 0 8 2119 21 14479 4740 1.9 11 6 2 8 23% 7092 60463 13750 71%
c c  2.02 17 117 0 8 2265 20 15853 5993 1.9 10 6 2 8 23% 7108 60448 13747 71%
c d  2.02 17 117 0 8 2265 20 15853 5985 1.9 10 6 2 8 23% 7104 60446 13747 71%
c d  2.02 17 117 0 8 2265 20 15853 5985 1.9 10 6 2 8 23% 7102 60446 13746 71%
c u  2.04 17 117 0 8 2265 20 15853 4832 1.9 10 6 2 8 23% 7104 60446 13746 71%
c v  2.05 17 117 0 8 2265 20 15853 4450 1.9 10 6 2 8 23% 7104 60446 13746 71%
c w  2.06 17 117 0 8 2265 20 15853 4436 1.9 10 6 2 8 23% 7104 60446 13746 71%
c x  2.07 17 117 0 8 2265 20 15853 4436 1.9 10 6 2 8 23% 7105 60427 13746 71%
c d  2.16 17 117 0 8 2265 20 15853 4433 1.9 10 6 2 8 23% 7103 60424 13745 71%
c t  2.17 17 117 0 8 2265 20 15853 4433 1.9 10 6 2 8 23% 7095 60424 13745 71%
c f  2.19 17 117 0 8 2265 20 15853 4433 1.9 10 6 2 8 23% 7131 60327 13771 71%
c u  2.21 17 117 0 8 2265 20 15853 4332 1.9 10 6 2 8 23% 7131 60327 13771 71%
c v  2.23 17 117 0 8 2265 20 15853 3699 1.9 10 6 2 8 23% 7131 60327 13771 71%
c w  2.25 17 117 0 8 2265 20 15853 3683 1.9 10 6 2 8 23% 7131 60327 13771 71%
c f  2.30 17 117 0 8 2265 20 15853 3683 1.9 10 6 2 8 23% 7128 60315 13778 72%
c -  2.40 17 117 0 9 2372 20 17308 4041 1.9 10 6 2 8 23% 7137 60314 13778 72%
c o  2.61 17 117 0 9 2638 19 20141 6621 1.9 10 6 2 8 24% 7180 60314 13778 72%
c
c  seconds   switched     rate        size/glue tier1    binary         remaining
c         MB   reductions   conflicts       size  tier2     irredundant
c           level   restarts     redundant    glue   trail         variables
c
c -  2.63 17 117 0 10 2664 19 20309 5869 1.9 10 6 3 9 24% 7182 60314 13778 72%
c i  2.70 17 116 0 10 2734 19 20898 6386 1.9 10 6 3 9 24% 7199 60313 13777 72%
c -  2.92 17 116 0 11 2972 19 23471 7570 1.8 10 6 3 9 25% 7203 60311 13777 72%
c s  3.03 17 116 0 11 3072 18 25120 9087 1.9 10 6 3 9 25% 7213 60227 13777 72%
c e  3.11 17 116 0 11 3072 18 25120 9087 1.9 10 6 3 9 25% 3851 65339 11833 61%
c s  3.12 17 116 0 11 3072 18 25120 9087 1.9 10 6 3 9 25% 3872 65205 11833 61%
c e  3.13 17 116 0 11 3072 18 25120 9087 1.9 10 6 3 9 25% 3869 65210 11831 61%
c ^  3.13 17 116 0 11 3072 18 25120 9087 1.9 10 6 3 9 25% 3869 65210 11831 61%
c -  3.27 17 118 0 12 3233 19 26788 6456 1.9 11 6 2 8 25% 3873 65210 11831 61%
c c  3.30 17 118 0 12 3255 19 27037 6687 1.9 11 6 2 8 25% 3879 65197 11828 61%
c d  3.31 17 118 0 12 3255 19 27037 6685 1.9 11 6 2 8 25% 3873 65197 11828 61%
c u  3.32 17 118 0 12 3255 19 27037 5147 1.9 11 6 2 8 25% 3893 65197 11828 61%
c v  3.35 17 118 0 12 3255 19 27037 3854 1.9 11 6 2 8 25% 3896 65197 11828 61%
c w  3.35 17 118 0 12 3255 19 27037 3852 1.9 11 6 2 8 25% 3896 65197 11828 61%
c x  3.37 17 118 0 12 3255 19 27037 3850 1.9 11 6 2 8 25% 3956 65044 11828 61%
c d  3.37 17 118 0 12 3255 19 27037 3836 1.9 11 6 2 8 25% 3932 65039 11816 61%
c t  3.38 17 118 0 12 3255 19 27037 3836 1.9 11 6 2 8 25% 3889 65039 11816 61%
c f  3.40 17 118 0 12 3255 19 27037 3836 1.9 11 6 2 8 25% 3922 64946 11834 61%
c u  3.42 17 118 0 12 3255 19 27037 3665 1.9 11 6 2 8 25% 3930 64946 11834 61%
c v  3.44 17 118 0 12 3255 19 27037 3497 1.9 11 6 2 8 25% 3931 64946 11834 61%
c
c  seconds   switched     rate        size/glue tier1    binary         remaining
c         MB   reductions   conflicts       size  tier2     irredundant
c           level   restarts     redundant    glue   trail         variables
c
c w  3.44 17 118 0 12 3255 19 27037 3494 1.9 11 6 2 8 25% 3931 64946 11834 61%
c x  3.47 17 118 0 12 3255 19 27037 3492 1.9 11 6 2 8 25% 3956 64659 11834 61%
c =  3.57 17 118 0 12 3255 19 27037 3492 1.9 11 6 2 8 25% 3962 64658 11831 61%
c d  3.57 17 118 0 12 3255 19 27037 3490 1.9 11 6 2 8 25% 3949 64655 11829 61%
c t  3.58 17 118 0 12 3255 19 27037 3490 1.9 11 6 2 8 25% 3932 64655 11829 61%
c f  3.60 17 118 0 12 3255 19 27037 3490 1.9 11 6 2 8 25% 3933 64648 11831 61%
c -  3.80 17 117 0 13 3564 18 30252 5277 1.9 11 6 2 8 25% 3959 64641 11831 61%
c i  3.91 17 117 0 13 3726 18 31868 6773 1.9 11 6 2 8 26% 3973 64636 11830 61%
c -  4.04 17 118 0 14 3890 18 33857 7644 1.8 11 6 3 9 26% 3978 64633 11830 61%
c -  4.32 17 117 0 15 4254 18 37598 8978 1.8 11 6 2 8 26% 4012 64631 11830 61%
c i  4.43 22 117 0 15 4396 18 38852 10122 1.8 11 6 2 8 26% 4022 64628 11829 61%
c o  4.50 22 116 0 15 4511 18 40220 11379 1.8 11 6 2 8 26% 4031 64628 11829 61%
c i  4.53 22 115 0 15 4554 18 40633 11742 1.8 11 6 2 8 25% 4038 64624 11828 61%
c i  4.61 22 116 0 15 4671 18 41388 12457 1.8 11 6 2 8 25% 4042 64624 11827 61%
c d  4.62 22 116 0 15 4671 18 41432 12443 1.8 11 6 2 8 25% 4017 64594 11809 61%
c d  4.62 22 116 0 15 4671 18 41432 12439 1.8 11 6 2 8 25% 4004 64594 11803 61%
c u  4.66 22 116 0 15 4671 18 41432 10066 1.8 11 6 2 8 25% 4024 64594 11801 61%
c v  4.68 22 116 0 15 4671 18 41432 9444 1.8 11 6 2 8 25% 4024 64594 11801 61%
c w  4.70 22 116 0 15 4671 18 41432 9431 1.8 11 6 2 8 25% 4024 64594 11801 61%
c x  4.73 22 116 0 15 4671 18 41432 9430 1.8 11 6 2 8 25% 4031 64557 11801 61%
c
c  seconds   switched     rate        size/glue tier1    binary         remaining
c         MB   reductions   conflicts       size  tier2     irredundant
c           level   restarts     redundant    glue   trail         variables
c
c d  4.73 22 116 0 15 4671 18 41432 9410 1.8 11 6 2 8 25% 4006 64552 11790 61%
c t  4.74 22 116 0 15 4671 18 41432 9410 1.8 11 6 2 8 25% 3978 64552 11790 61%
c f  4.75 18 116 0 15 4671 18 41432 9410 1.8 11 6 2 8 25% 3982 64532 11793 61%
c c  4.78 17 116 0 15 4671 18 41432 9306 1.8 11 6 2 8 25% 4005 64413 11771 61%
c d  4.78 17 116 0 15 4671 18 41432 9306 1.8 11 6 2 8 25% 3961 64413 11771 61%
c u  4.80 17 116 0 15 4671 18 41432 9069 1.8 11 6 2 8 25% 3949 64413 11771 61%
c v  4.86 17 116 0 15 4671 18 41432 7350 1.8 11 6 2 8 25% 3949 64413 11771 61%
c w  4.88 17 116 0 15 4671 18 41432 7318 1.8 11 6 2 8 25% 3949 64413 11771 61%
c =  5.02 17 116 0 15 4671 18 41432 7318 1.8 11 6 2 8 25% 4110 64326 11684 61%
c d  5.02 17 116 0 15 4671 18 41432 7239 1.8 11 6 2 8 25% 3929 64323 11684 61%
c t  5.03 17 116 0 15 4671 18 41432 7239 1.8 11 6 2 8 25% 3899 64323 11684 61%
c f  5.04 17 116 0 15 4671 18 41432 7239 1.8 11 6 2 8 25% 3903 64295 11691 61%
c i  5.04 17 116 0 15 4671 18 41432 7239 1.8 11 6 2 8 25% 3903 64295 11691 61%
c -  5.05 17 116 0 16 4674 18 41470 5680 1.8 11 6 2 8 25% 3895 64295 11691 61%
c i  5.33 17 115 0 16 5054 18 45244 9205 1.8 11 6 2 8 26% 3913 64290 11690 61%
c i  5.33 17 115 0 16 5054 18 45250 9205 1.8 11 6 2 8 26% 3916 64290 11689 61%
c -  5.34 17 115 0 17 5064 18 45470 7692 1.8 11 6 2 8 26% 3909 64290 11689 61%
c -  5.57 17 115 0 18 5422 17 49593 9540 1.8 11 6 2 8 25% 3936 64286 11689 61%
c s  5.78 22 115 0 18 5681 17 52346 12095 1.8 11 6 2 8 25% 3953 63907 11689 61%
c e  5.86 19 115 0 18 5681 17 52346 12095 1.8 11 6 2 8 25% 2048 67796 10420 54%
c
c  seconds   switched     rate         size/glue tier1    binary         remaining
c         MB   reductions   conflicts        size  tier2     irredundant
c           level   restarts      redundant    glue   trail         variables
c
c 2  5.86 19 115 0 18 5681 17 52346 12095 1.8 11 6 2 8 25% 2046 67796 10420 54%
c s  5.88 19 115 0 18 5681 17 52346 12095 1.8 11 6 2 8 25% 2055 67642 10420 54%
c e  5.88 19 115 0 18 5681 17 52346 12095 1.8 11 6 2 8 25% 2040 67664 10408 54%
c ^  5.88 19 115 0 18 5681 17 52346 12095 1.8 11 6 2 8 25% 2040 67664 10408 54%
c i  5.89 20 115 0 18 5681 17 52362 8907 1.8 11 6 2 8 25% 2044 67664 10407 54%
c -  6.06 21 115 0 19 5890 18 53835 8543 1.8 11 6 2 8 25% 2043 67657 10407 54%
c -  6.40 21 114 0 20 6399 18 58193 10452 1.8 11 6 2 8 26% 2056 67656 10407 54%
c d  6.48 21 115 0 20 6488 18 59145 11352 1.8 11 6 2 8 26% 2052 67654 10404 54%
c u  6.51 21 115 0 20 6488 18 59145 8843 1.8 11 6 2 8 26% 2067 67654 10404 54%
c v  6.55 21 115 0 20 6488 18 59145 7533 1.8 11 6 2 8 26% 2067 67654 10404 54%
c w  6.56 21 115 0 20 6488 18 59145 7514 1.8 11 6 2 8 26% 2067 67654 10404 54%
c x  6.58 21 115 0 20 6488 18 59145 7513 1.8 11 6 2 8 26% 2069 67645 10404 54%
c =  6.83 21 115 0 20 6488 18 59145 7513 1.8 11 6 2 8 26% 2201 67623 10338 54%
c d  6.84 21 115 0 20 6488 18 59145 7469 1.8 11 6 2 8 26% 2057 67623 10337 54%
c t  6.85 21 115 0 20 6488 18 59145 7469 1.8 11 6 2 8 26% 2020 67623 10337 54%
c f  6.92 18 115 0 20 6488 18 59145 7469 1.8 11 6 2 8 26% 2022 67582 10344 54%
c c  6.98 17 115 0 20 6488 18 59145 7455 1.8 11 6 2 8 26% 2033 67549 10339 54%
c d  6.98 17 115 0 20 6488 18 59145 7455 1.8 11 6 2 8 26% 2023 67549 10339 54%
c u  7.03 17 115 0 20 6488 18 59145 7156 1.8 11 6 2 8 26% 2030 67549 10337 54%
c v  7.08 17 115 0 20 6488 18 59145 6153 1.8 11 6 2 8 26% 2032 67549 10336 54%
c
c  seconds   switched     rate        size/glue tier1    binary         remaining
c         MB   reductions   conflicts       size  tier2     irredundant
c           level   restarts     redundant    glue   trail         variables
c
c w  7.10 17 115 0 20 6488 18 59145 6134 1.8 11 6 2 8 26% 2032 67549 10336 54%
c =  7.36 17 115 0 20 6488 18 59145 6134 1.8 11 6 2 8 26% 2196 67514 10254 53%
c d  7.36 17 115 0 20 6488 18 59145 6061 1.8 11 6 2 8 26% 2023 67513 10254 53%
c d  7.37 17 115 0 20 6488 18 59145 6061 1.8 11 6 2 8 26% 2021 67511 10253 53%
c t  7.37 17 115 0 20 6488 18 59145 6061 1.8 11 6 2 8 26% 1975 67511 10253 53%
c f  7.40 17 115 0 20 6488 18 59145 6061 1.8 11 6 2 8 26% 1984 67457 10261 53%
c i  7.40 17 115 0 20 6488 18 59145 6061 1.8 11 6 2 8 26% 1984 67457 10261 53%
c -  7.76 17 116 0 21 6789 18 62665 7747 1.8 11 6 2 8 26% 1988 67455 10261 53%
c i  7.86 22 116 0 21 6901 18 63505 8547 1.8 11 6 2 8 26% 1991 67455 10260 53%
c -  8.36 22 117 0 22 7325 18 67247 10019 1.8 11 6 2 8 26% 2011 67455 10260 53%
c i  8.61 22 117 0 22 7522 18 69493 12103 1.8 11 6 2 8 26% 2019 67455 10259 53%
c o  8.68 22 117 0 22 7596 18 70237 12795 1.8 11 6 2 8 26% 2022 67455 10259 53%
c -  8.94 22 117 0 23 7808 18 71938 11945 1.8 11 6 2 8 26% 2022 67455 10259 53%
c i  8.96 22 117 0 23 7846 18 72258 12240 1.8 11 6 2 8 26% 2023 67455 10258 53%
c i  8.98 22 117 0 23 7856 18 72476 12414 1.8 11 6 2 8 26% 2027 67455 10257 53%
c -  9.37 24 116 0 24 8209 17 76735 13580 1.8 11 6 2 8 26% 2045 67453 10257 53%
c d  9.72 24 115 0 24 8534 17 80291 16766 1.8 11 6 2 8 26% 2043 67419 10242 53%
c d  9.72 24 115 0 24 8534 17 80291 16766 1.8 11 6 2 8 26% 2037 67419 10239 53%
c u  9.78 24 115 0 24 8534 17 80291 13449 1.8 11 6 2 8 26% 2068 67419 10239 53%
c v  9.87 24 115 0 24 8534 17 80291 11487 1.8 11 6 2 8 26% 2072 67419 10239 53%
c
c  seconds   switched     rate         size/glue tier1    binary         remaining
c         MB   reductions   conflicts        size  tier2     irredundant
c           level   restarts      redundant    glue   trail         variables
c
c w  9.90 24 115 0 24 8534 17 80291 11441 1.8 11 6 2 8 26% 2072 67419 10239 53%
c d 10.19 24 115 0 24 8534 17 80291 11429 1.8 11 6 2 8 26% 2058 67419 10232 53%
c t 10.20 24 115 0 24 8534 17 80291 11429 1.8 11 6 2 8 26% 2036 67419 10232 53%
c f 10.21 18 115 0 24 8534 17 80291 11429 1.8 11 6 2 8 26% 2033 67416 10233 53%
c u 10.27 20 115 0 24 8534 17 80291 10971 1.8 11 6 2 8 26% 2039 67416 10233 53%
c v 10.33 20 115 0 24 8534 17 80291 9941 1.8 11 6 2 8 26% 2040 67416 10233 53%
c w 10.36 20 115 0 24 8534 17 80291 9901 1.8 11 6 2 8 26% 2040 67416 10233 53%
c x 10.42 21 115 0 24 8534 17 80291 9891 1.8 11 6 2 8 26% 2048 66391 10233 53%
c d 10.43 21 115 0 24 8534 17 80291 9889 1.8 11 6 2 8 26% 2046 66391 10232 53%
c t 10.44 21 115 0 24 8534 17 80291 9889 1.8 11 6 2 8 26% 2040 66391 10232 53%
c - 10.60 21 115 0 25 8672 17 81635 9121 1.8 11 6 2 8 26% 2042 66391 10232 53%
c - 11.06 22 114 0 26 9153 17 86636 11490 1.8 11 6 2 8 26% 2064 66389 10232 53%
c i 11.21 22 114 0 26 9334 17 88635 13352 1.8 11 6 2 8 26% 2074 66389 10231 53%
c i 11.42 22 113 0 26 9548 17 91625 16094 1.8 11 6 2 8 25% 2095 66389 10230 53%
c - 11.44 22 113 0 27 9553 17 91737 13605 1.8 11 6 2 8 25% 2092 66389 10230 53%
c i 11.58 22 112 0 27 9710 17 93456 15143 1.8 11 6 2 8 25% 2109 66389 10229 53%
c i 11.78 24 111 0 27 9929 17 96107 17579 1.8 11 6 2 8 25% 2129 66388 10228 53%
c i 11.78 24 111 0 27 9929 17 96110 17578 1.8 11 6 2 8 25% 2131 66388 10226 53%
c i 11.78 24 111 0 27 9931 17 96139 17600 1.8 11 6 2 8 25% 2131 66388 10223 53%
c s 11.79 24 111 0 27 9941 17 96188 17639 1.8 11 6 2 8 25% 2135 66199 10223 53%
c
c  seconds   switched     rate         size/glue tier1    binary        remaining
c         MB   reductions   conflicts        size  tier2     irredundant
c           level   restarts      redundant    glue   trail        variables
c
c e 11.93 19 111 0 27 9941 17 96188 17639 1.8 11 6 2 8 25% 1692 67387 9833 51%
c 2 11.93 19 111 0 27 9941 17 96188 17639 1.8 11 6 2 8 25% 1688 67387 9833 51%
c s 11.94 19 111 0 27 9941 17 96188 17639 1.8 11 6 2 8 25% 1695 67046 9833 51%
c e 11.95 19 111 0 27 9941 17 96188 17639 1.8 11 6 2 8 25% 1676 67088 9820 51%
c ^ 11.95 19 111 0 27 9941 17 96188 17639 1.8 11 6 2 8 25% 1676 67088 9820 51%
c - 12.01 21 111 0 28 9980 17 96933 13262 1.8 11 6 2 8 25% 1679 67088 9820 51%
c i 12.31 21 110 0 28 10193 16 100215 16203 1.8 11 6 2 8 24% 1693 67087 9819 51%
c - 12.52 21 109 0 29 10413 16 102225 15067 1.8 11 6 2 8 24% 1694 67087 9819 51%
c i 12.54 21 110 0 29 10424 16 102503 15309 1.8 11 6 2 8 24% 1696 67087 9818 51%
c i 12.54 21 110 0 29 10424 16 102521 15313 1.8 11 6 2 8 24% 1700 67087 9817 51%
c c 12.74 17 109 0 29 10596 16 105012 17567 1.8 11 6 2 8 24% 1709 66993 9806 51%
c d 12.75 17 109 0 29 10596 16 105012 17450 1.8 11 6 2 8 24% 1697 66983 9806 51%
c d 12.75 17 109 0 29 10596 16 105012 17406 1.8 11 6 2 8 24% 1687 66979 9801 51%
c u 12.82 17 109 0 29 10596 16 105012 13487 1.8 11 6 2 8 24% 1712 66979 9800 51%
c v 12.90 17 109 0 29 10596 16 105012 11970 1.8 11 6 2 8 24% 1711 66979 9800 51%
c w 12.93 17 109 0 29 10596 16 105012 11939 1.8 11 6 2 8 24% 1711 66979 9800 51%
c = 13.19 17 109 0 29 10596 16 105012 11939 1.8 11 6 2 8 24% 1773 66961 9769 51%
c d 13.20 17 109 0 29 10596 16 105012 11873 1.8 11 6 2 8 24% 1696 66961 9769 51%
c t 13.21 17 109 0 29 10596 16 105012 11873 1.8 11 6 2 8 24% 1618 66961 9769 51%
c f 13.25 17 109 0 29 10596 16 105012 11873 1.8 11 6 2 8 24% 1631 66916 9772 51%
c
c  seconds   switched      rate          size/glue tier1    binary        remaining
c         MB   reductions    conflicts         size  tier2     irredundant
c           level   restarts        redundant    glue   trail        variables
c
c u 13.32 17 109 0 29 10596 16 105012 11383 1.8 11 6 2 8 24% 1638 66916 9772 51%
c v 13.39 17 109 0 29 10596 16 105012 10211 1.8 11 6 2 8 24% 1639 66916 9772 51%
c w 13.41 17 109 0 29 10596 16 105012 10169 1.8 11 6 2 8 24% 1639 66916 9772 51%
c x 13.47 17 109 0 29 10596 16 105012 10167 1.8 11 6 2 8 24% 1643 66794 9772 51%
c = 13.73 17 109 0 29 10596 16 105012 10167 1.8 11 6 2 8 24% 1685 66791 9751 51%
c d 13.74 17 109 0 29 10596 16 105012 10149 1.8 11 6 2 8 24% 1637 66791 9751 51%
c t 13.75 17 109 0 29 10596 16 105012 10149 1.8 11 6 2 8 24% 1609 66791 9751 51%
c f 13.76 17 109 0 29 10596 16 105012 10149 1.8 11 6 2 8 24% 1611 66779 9752 51%
c i 13.77 17 109 0 29 10596 16 105012 10149 1.8 11 6 2 8 24% 1611 66779 9752 51%
c i 13.89 17 108 0 29 10717 16 106979 11963 1.8 11 6 2 8 24% 1624 66779 9751 51%
c i 13.91 17 108 0 29 10742 16 107342 12291 1.8 11 6 2 8 24% 1626 66779 9750 51%
c - 13.92 17 107 0 30 10749 16 107610 10349 1.8 11 6 2 8 24% 1619 66779 9750 51%
c i 13.98 17 107 0 30 10817 16 109091 11652 1.8 11 6 2 8 23% 1626 66777 9749 51%
c o 14.03 17 106 0 30 10870 16 110276 12688 1.8 11 6 2 8 23% 1638 66776 9749 51%
c - 14.15 17 104 0 31 11002 15 113087 12840 1.8 11 6 2 8 23% 1665 66773 9749 51%
c i 14.33 18 102 0 31 11243 15 116732 16099 1.8 11 6 2 8 22% 1695 66772 9747 51%
c - 14.45 18 101 0 32 11426 15 118656 15138 1.8 11 6 2 7 22% 1695 66771 9747 51%
c i 14.60 18 100 0 32 11631 15 121586 17854 1.8 11 6 2 7 21% 1709 66771 9746 51%
c i 14.62 18 100 0 32 11649 15 121995 18200 1.8 11 6 2 7 21% 1718 66771 9745 51%
c i 14.69 18 99 0 32 11743 14 123709 19707 1.8 11 6 2 7 21% 1735 66771 9744 51%
c
c  seconds  switched      rate          size/glue tier1    binary        remaining
c         MB  reductions    conflicts         size  tier2     irredundant
c          level   restarts        redundant    glue   trail        variables
c
c - 14.72 18 98 0 33 11773 14 124315 17186 1.8 11 6 2 7 21% 1732 66771 9744 51%
c i 14.73 18 98 0 33 11786 14 124595 17408 1.8 11 6 2 7 21% 1740 66771 9741 51%
c i 14.76 18 97 0 33 11808 14 125305 18014 1.8 11 6 2 7 20% 1749 66771 9740 51%
c i 14.78 18 97 0 33 11830 14 126023 18573 1.8 11 6 2 7 20% 1779 66771 9728 51%
c i 14.78 18 97 0 33 11830 14 126057 18593 1.8 11 6 2 7 20% 1780 66771 9725 50%
c i 14.78 18 97 0 33 11830 14 126060 18593 1.8 11 6 2 7 20% 1781 66770 9722 50%
c i 14.78 18 97 0 33 11830 14 126073 18599 1.8 11 6 2 7 20% 1784 66770 9720 50%
c i 14.78 18 96 0 33 11830 14 126342 18818 1.8 11 6 2 7 20% 1802 66769 9719 50%
c } 14.79 18 96 0 33 11830 14 126391 18841 1.8 11 6 2 7 20% 1807 66769 9657 50%
c 0 14.79 18 96 0 33 11830 14 126391 18841 1.8 11 6 2 7 20% 1807 66769 9657 50%
c
c ---- [ result ] ------------------------------------------------------------
c
s UNSATISFIABLE
c
c ---- [ profiling ] ---------------------------------------------------------
c
c           9.83   66.49 %  search
c           9.83   66.49 %  focused
c           4.75   32.12 %  simplify
c           4.36   29.46 %  probe
c           1.76   11.89 %  sweep
c           1.51   10.24 %  vivify
c           0.50    3.41 %  eliminate
c           0.42    2.86 %  factor
c           0.29    1.93 %  congruence
c           0.28    1.91 %  substitute
c           0.18    1.24 %  preprocess
c           0.12    0.84 %  reduce
c           0.07    0.47 %  fastel
c           0.07    0.45 %  subsume
c           0.06    0.40 %  transitive
c           0.03    0.23 %  backbone
c           0.01    0.08 %  parse
c           0.01    0.07 %  lucky
c =============================================
c          14.79  100.00 %  total
c
c ---- [ statistics ] --------------------------------------------------------
c
c chronological:                         1944                2 %  conflicts
c conflicts:                           126391             8548.20 per second
c congruent:                              269                1 %  variables
c decisions:                          1852446               14.66 per conflict
c eliminated:                           10276               53 %  variables
c factored:                              1473                8 %  variables
c fast_eliminated:                       5341               52 %  eliminated
c fast_strengthened:                       58                6 %  per strengthened
c fast_subsumed:                           24                2 %  per subsumed
c iterations:                              43                0 %  variables
c propagations:                      57184112          3867533    per second
c reductions:                              33             3830    interval
c reordered:                                5            25278    interval
c restarts:                             11830               11    interval
c strengthened:                          1001                0 %  checks
c substituted:                            648                3 %  variables
c subsumed:                              1439                0 %  checks
c switched:                                 0                0    interval
c vivified:                             43620               20 %  checks
c
c ---- [ glue usage ] --------------------------------------------------------
c
c focused glue 2   used 60313 clauses 29.64% accumulated 62.65% tier1
c focused glue 3   used 24435 clauses 12.01% accumulated 74.65%
c focused glue 4-5 used 20684 clauses 10.16% accumulated 84.82%
c focused glue 6   used  7155 clauses  3.52% accumulated 88.33%
c focused glue 7   used  5645 clauses  2.77% accumulated 91.11% tier2
c
c ---- [ resources ] ---------------------------------------------------------
c
c maximum-resident-set-size:         25022464 bytes         24 MB
c process-time:                            15s              14.79 seconds
c
c ---- [ shutting down ] -----------------------------------------------------
c
c exit 20
